RAW/XX/fspd-long/X-n125-k30.vrp_seed-8.out
40047	216.071	322.26
