RAW/XX/fspd-long/X-n125-k30.vrp_seed-8.sol
Route #1: 67 71 104 29 41
Route #2: 98 53 69
Route #3: 122 110 112 91 21
Route #4: 113 103 39
Route #5: 61 83 18 10
Route #6: 95 20 101 107 7 77 64 54 121 84
Route #7: 56 82 49 50 124 28 78 17
Route #8: 73 99 12 100
Route #9: 26 108 85 30 27 117 62
Route #10: 102 90 43 35 8
Route #11: 31 60 120 75
Route #12: 13 2 70 115 88 89 105 51
Route #13: 94 58 4 80 65 40 22 47 68 25
Route #14: 93 76 45 119 72
Route #15: 111 109 118 63 46 1 79 36 55
Route #16: 38 106 57 5 32
Route #17: 14 123 44 97 74 42 81 92 15 116 66 23 24
Route #18: 96 86 33 37 48
Route #19: 3 52 16 87 114 11 19 9 59 6 34
Cost 40047.000000